p cnf 14 25
14 13 -7 0
-14 -12 9 0
-14 -12 -6 0
14 12 3 0
14 12 -1 0
-14 -12 1 0
-14 10 3 0
14 -9 -8 0
14 8 -1 0
-14 5 3 0
-14 -5 -1 0
-13 -12 4 0
-13 -10 -7 0
13 -4 1 0
12 -9 -7 0
11 -4 2 0
-10 -5 -3 0
10 4 1 0
9 -7 6 0
9 -6 4 0
9 -3 1 0
-8 6 -1 0
-8 5 -1 0
-7 5 -2 0
6 5 -2 0
